Tried aggregator 1 time.
LP Presolve eliminated 11 rows and 0 columns.
Reduced LP has 23 rows, 42 columns, and 123 nonzeros.
Presolve time =    0.03 sec.
Initializing dual steep norms . . .

Iteration log . . .
Iteration:     1   Dual objective     =             0.000000
Solution status 1, solution method 2
Objective value 10.
Maximum bound violation =                 0

Elapsed time : 0.010 
